data;


param d:= 100;
param r:=5;
param p:=0.700000;
param M:=1000;
param U:=
         1         1        1.073455e+00
         2         1        2.271049e+00
         3         1       -6.424016e-01
         4         1       -1.009463e-01
         5         1        2.521866e-01
         6         1        5.056950e-01
         7         1       -1.707611e+00
         8         1       -8.292263e-01
         9         1        4.620353e-01
        10         1        6.642253e-03
        11         1       -8.958273e-01
        12         1       -2.137105e-01
        13         1       -6.600977e-01
        14         1       -4.090117e-01
        15         1        9.037300e-01
        16         1        1.750331e+00
        17         1       -4.348620e-02
        18         1        2.861148e-02
        19         1        3.385573e-01
        20         1       -8.499491e-01
        21         1       -1.430952e+00
        22         1       -6.907896e-01
        23         1        9.349680e-02
        24         1       -4.159933e-01
        25         1       -1.400002e+00
        26         1        1.164165e+00
        27         1        8.543398e-03
        28         1        1.338618e+00
        29         1       -2.690816e-02
        30         1       -8.450699e-01
        31         1       -7.208027e-01
        32         1        7.090731e-01
        33         1       -1.065863e+00
        34         1       -1.053818e+00
        35         1       -1.526662e+00
        36         1       -2.462206e-01
        37         1        1.805962e-01
        38         1       -2.621490e-01
        39         1       -1.216535e-01
        40         1        1.387368e+00
        41         1        2.209379e-01
        42         1        4.394584e-01
        43         1       -8.105236e-01
        44         1        3.589929e-01
        45         1        6.060361e-01
        46         1       -9.715825e-01
        47         1       -1.470624e+00
        48         1       -2.511322e-01
        49         1       -1.182839e-01
        50         1       -7.877719e-01
        51         1        1.257222e+00
        52         1        1.862179e+00
        53         1       -1.476199e+00
        54         1       -7.118826e-01
        55         1       -1.121468e+00
        56         1        8.214481e-01
        57         1       -4.226477e-01
        58         1       -7.431917e-01
        59         1       -1.013735e+00
        60         1       -1.149084e+00
        61         1       -4.430277e-01
        62         1        7.070423e-01
        63         1       -3.988289e-01
        64         1        1.046945e+00
        65         1       -4.508267e-01
        66         1       -1.522146e+00
        67         1       -9.963472e-01
        68         1        5.238459e-03
        69         1        1.304841e+00
        70         1       -7.279161e-01
        71         1        1.816924e+00
        72         1        7.728781e-01
        73         1        1.992121e+00
        74         1       -9.322536e-02
        75         1       -1.272764e-01
        76         1       -5.204347e-01
        77         1        7.366544e-01
        78         1        6.106629e-01
        79         1       -6.748083e-01
        80         1       -1.490475e-01
        81         1       -3.007859e-01
        82         1        4.345886e-01
        83         1       -3.142393e-01
        84         1        3.915093e-01
        85         1       -1.188605e+00
        86         1       -1.804475e+00
        87         1       -2.422090e+00
        88         1        1.273810e+00
        89         1        9.167207e-01
        90         1        8.285262e-01
        91         1       -4.187609e-02
        92         1        6.473858e-01
        93         1        1.567248e+00
        94         1        4.655575e-02
        95         1       -6.385612e-01
        96         1       -3.069637e-01
        97         1        1.345722e-01
        98         1       -1.818027e+00
        99         1       -5.321126e-01
       100         1        1.186372e+00
         1         2        5.237278e-02
         2         2        4.811744e-01
         3         2       -7.329893e-01
         4         2       -4.352308e+00
         5         2       -2.293196e-01
         6         2       -6.687047e-01
         7         2        8.469737e-01
         8         2       -3.912796e-01
         9         2       -8.065610e-01
        10         2        9.552357e-01
        11         2       -1.059129e+00
        12         2       -1.235525e-01
        13         2        1.660018e-01
        14         2        1.042578e+00
        15         2        8.679159e-01
        16         2       -5.814164e-01
        17         2        1.387294e+00
        18         2       -1.049905e+00
        19         2       -8.515503e-02
        20         2        1.663015e+00
        21         2        1.686755e+00
        22         2       -1.388469e+00
        23         2       -3.289819e-02
        24         2        6.661152e-01
        25         2        3.481333e-01
        26         2        9.106393e-01
        27         2       -9.713874e-01
        28         2        1.490339e-01
        29         2        1.353628e-01
        30         2       -7.601711e-01
        31         2       -2.420883e-01
        32         2        1.463491e+00
        33         2        7.201500e-01
        34         2       -4.714633e-01
        35         2       -2.685933e+00
        36         2        1.994128e+00
        37         2       -1.757516e+00
        38         2        1.678116e-01
        39         2       -2.537408e-01
        40         2       -2.547988e-01
        41         2        2.062919e+00
        42         2        2.090706e+00
        43         2        1.261443e+00
        44         2        1.454577e-01
        45         2        1.497455e+00
        46         2       -2.760521e-01
        47         2       -1.854235e+00
        48         2       -1.365337e+00
        49         2       -1.464910e+00
        50         2       -1.701004e+00
        51         2        2.873959e-01
        52         2       -1.161584e-01
        53         2       -2.455543e+00
        54         2        5.226548e-01
        55         2       -2.705380e-01
        56         2        2.565440e-01
        57         2        8.703926e-02
        58         2       -3.510147e-01
        59         2        8.262025e-01
        60         2       -1.704066e+00
        61         2        1.688731e+00
        62         2        1.863513e-01
        63         2       -1.321982e+00
        64         2       -1.949904e-01
        65         2        2.791601e-01
        66         2        2.908462e-01
        67         2        1.452979e-01
        68         2        9.980447e-02
        69         2        7.318453e-01
        70         2        5.565661e-01
        71         2        1.420669e+00
        72         2        1.248875e+00
        73         2       -1.584320e+00
        74         2        1.414064e+00
        75         2       -1.495778e+00
        76         2       -7.618951e-01
        77         2        1.120916e+00
        78         2        1.780251e+00
        79         2        3.901156e-01
        80         2        1.155593e+00
        81         2        2.896782e-01
        82         2        3.451170e-01
        83         2        1.739582e+00
        84         2        6.985994e-03
        85         2       -5.839852e-01
        86         2        1.053556e+00
        87         2        3.731058e-01
        88         2        1.078669e+00
        89         2       -7.485290e-01
        90         2        2.080782e-01
        91         2        6.650332e-01
        92         2       -1.164752e+00
        93         2        2.615372e-01
        94         2       -1.758295e+00
        95         2       -5.463892e-01
        96         2       -1.769814e+00
        97         2        7.234633e-01
        98         2       -8.569913e-01
        99         2        2.447409e-01
       100         2       -5.975082e-01
         1         3        1.412076e+00
         2         3       -2.659315e+00
         3         3        1.562619e+00
         4         3        9.667518e-01
         5         3        1.840308e+00
         6         3        1.286710e+00
         7         3       -1.193430e+00
         8         3       -2.241477e+00
         9         3       -1.433680e+00
        10         3        5.100470e-01
        11         3        6.782522e-01
        12         3        1.706110e+00
        13         3       -4.484129e-01
        14         3       -1.027799e-01
        15         3        8.349317e-02
        16         3        5.136522e-01
        17         3       -7.949483e-01
        18         3        1.331966e+00
        19         3        3.531574e-01
        20         3        2.041744e+00
        21         3       -1.243894e+00
        22         3        4.995570e-01
        23         3        4.958275e-01
        24         3       -1.330248e+00
        25         3        9.164062e-01
        26         3        5.784553e-01
        27         3       -2.133824e+00
        28         3        2.099012e+00
        29         3        1.169780e+00
        30         3       -9.437734e-01
        31         3        3.806744e-01
        32         3        1.299976e+00
        33         3        1.536717e-01
        34         3       -7.915422e-01
        35         3        1.740942e+00
        36         3       -1.278865e+00
        37         3       -1.324333e+00
        38         3        8.002141e-01
        39         3       -1.306645e-01
        40         3        6.760252e-01
        41         3       -1.474862e+00
        42         3       -8.523866e-01
        43         3        1.200774e+00
        44         3        9.900074e-02
        45         3       -9.575392e-01
        46         3       -8.729219e-01
        47         3        3.928400e-01
        48         3       -7.257679e-01
        49         3        5.712627e-01
        50         3       -1.954615e+00
        51         3       -6.829340e-01
        52         3       -7.660674e-01
        53         3        1.397016e+00
        54         3       -2.534268e+00
        55         3       -4.837118e-01
        56         3        5.652021e-01
        57         3       -1.477789e+00
        58         3        1.238955e+00
        59         3        1.509749e+00
        60         3       -6.542776e-01
        61         3        1.738163e+00
        62         3        4.611592e-01
        63         3       -5.636096e-01
        64         3        4.373814e-01
        65         3       -1.654584e+00
        66         3       -5.979115e-01
        67         3        2.180281e-01
        68         3       -5.701130e-02
        69         3       -9.372128e-02
        70         3       -2.428786e-01
        71         3        8.307954e-01
        72         3        2.526065e-01
        73         3        1.450286e+00
        74         3       -1.431425e+00
        75         3       -8.666978e-01
        76         3        1.940959e-01
        77         3       -2.087476e+00
        78         3       -7.566716e-02
        79         3        1.232694e+00
        80         3        9.432002e-01
        81         3        6.735745e-01
        82         3       -7.638785e-01
        83         3       -1.303406e+00
        84         3        1.027305e+00
        85         3       -7.138592e-01
        86         3        1.051899e-01
        87         3       -1.318369e+00
        88         3       -7.888004e-01
        89         3        6.938810e-01
        90         3       -3.411469e-01
        91         3        7.216883e-01
        92         3       -3.711702e-01
        93         3       -1.811619e+00
        94         3       -1.068535e+00
        95         3       -5.694162e-01
        96         3       -2.525530e-01
        97         3        3.434293e-01
        98         3        6.179544e-01
        99         3        1.001261e+00
       100         3        9.165676e-01
         1         4        5.318694e-03
         2         4       -8.752464e-01
         3         4       -9.083091e-02
         4         4       -1.644369e-01
         5         4       -2.988065e-01
         6         4       -9.178610e-01
         7         4       -1.727301e-01
         8         4        1.560499e+00
         9         4        2.935708e-01
        10         4       -2.063039e+00
        11         4        6.131654e-01
        12         4        2.936181e-01
        13         4       -3.133557e-01
        14         4       -9.228006e-01
        15         4        2.280482e-01
        16         4        5.398238e-01
        17         4        1.803988e+00
        18         4       -1.123444e+00
        19         4       -4.033823e-02
        20         4       -4.565019e-01
        21         4        1.486540e+00
        22         4       -4.006448e-01
        23         4        4.269976e-01
        24         4       -2.196447e-01
        25         4       -2.156734e-01
        26         4       -4.922839e-01
        27         4       -1.300337e+00
        28         4       -5.100804e-01
        29         4        5.570823e-01
        30         4       -2.726443e-01
        31         4        1.564539e+00
        32         4       -5.330630e-01
        33         4        1.211943e+00
        34         4        1.460312e+00
        35         4        2.092180e-01
        36         4        4.502401e-01
        37         4       -8.984997e-01
        38         4       -5.133637e-02
        39         4        1.543934e+00
        40         4        1.409918e+00
        41         4        1.526098e+00
        42         4        5.341477e-01
        43         4       -1.457580e+00
        44         4       -1.406803e+00
        45         4        9.341363e-01
        46         4        1.543981e+00
        47         4       -7.605523e-02
        48         4       -1.595807e+00
        49         4        1.290959e+00
        50         4       -1.463168e+00
        51         4        4.551931e-01
        52         4        9.085728e-01
        53         4        1.421306e+00
        54         4        2.641555e+00
        55         4        1.328961e-03
        56         4        1.215220e-01
        57         4        2.398447e+00
        58         4        1.633169e+00
        59         4       -6.882481e-01
        60         4        3.310918e-01
        61         4       -9.141941e-01
        62         4        1.019810e+00
        63         4        7.941524e-01
        64         4        1.884453e-01
        65         4        1.863858e+00
        66         4        1.180110e+00
        67         4        2.839400e-01
        68         4       -8.908963e-01
        69         4        7.452636e-01
        70         4        2.774724e-01
        71         4        9.105169e-01
        72         4        1.536141e+00
        73         4       -1.112449e+00
        74         4        1.944499e-01
        75         4        2.386530e-01
        76         4       -6.610233e-01
        77         4       -7.832013e-01
        78         4       -7.336964e-01
        79         4        4.149776e-01
        80         4       -1.048823e+00
        81         4       -1.433734e+00
        82         4        2.204549e-01
        83         4        1.109489e+00
        84         4       -1.056298e+00
        85         4        5.765032e-01
        86         4        9.927758e-01
        87         4        1.599627e+00
        88         4       -1.100638e-01
        89         4       -8.095386e-01
        90         4       -3.633751e-01
        91         4       -1.516600e+00
        92         4       -2.941135e-01
        93         4       -2.299373e+00
        94         4        6.309220e-01
        95         4        7.031303e-02
        96         4       -7.149973e-01
        97         4       -1.596308e-01
        98         4        7.549997e-03
        99         4        2.599790e-02
       100         4       -9.227197e-01
         1         5        9.682356e-01
         2         5        1.899838e-01
         3         5       -1.384843e+00
         4         5       -8.393185e-01
         5         5       -1.114942e+00
         6         5       -1.222647e+00
         7         5       -7.304553e-01
         8         5        1.025180e+00
         9         5        4.066216e-01
        10         5        6.871605e-01
        11         5        1.644809e+00
        12         5        1.708369e+00
        13         5        9.962996e-01
        14         5        4.636717e-01
        15         5        4.771289e-01
        16         5       -6.970737e-01
        17         5        1.188690e+00
        18         5       -6.345912e-01
        19         5       -3.093476e-01
        20         5       -2.876864e-02
        21         5        8.889158e-01
        22         5       -9.597349e-01
        23         5        1.934687e-01
        24         5       -1.676620e-02
        25         5        1.261971e+00
        26         5       -1.108613e+00
        27         5        5.338966e-01
        28         5       -1.121605e+00
        29         5       -7.662188e-01
        30         5       -1.116846e+00
        31         5        1.371815e-01
        32         5        5.220230e-01
        33         5        6.811642e-01
        34         5       -5.163482e-01
        35         5       -8.196062e-01
        36         5        7.141577e-01
        37         5       -2.418865e-01
        38         5        8.632177e-01
        39         5        5.178125e-02
        40         5       -4.268571e-01
        41         5       -1.820744e+00
        42         5       -3.297260e-01
        43         5        1.479949e-01
        44         5        6.497358e-01
        45         5       -1.452076e+00
        46         5       -1.024392e+00
        47         5       -1.065708e+00
        48         5        9.970120e-01
        49         5       -4.286550e-01
        50         5       -1.930695e-01
        51         5       -7.030105e-01
        52         5        1.168608e+00
        53         5       -2.649380e-01
        54         5        5.020127e-02
        55         5        3.652854e-01
        56         5       -1.099949e+00
        57         5        2.041557e+00
        58         5       -2.354624e+00
        59         5       -5.131811e-02
        60         5       -3.800171e+00
        61         5        2.485299e-01
        62         5       -1.180324e+00
        63         5       -3.404493e-01
        64         5       -1.616289e+00
        65         5        1.161056e+00
        66         5       -1.148759e+00
        67         5       -9.659694e-01
        68         5        1.345475e+00
        69         5       -1.381552e-01
        70         5       -1.266744e-01
        71         5       -6.109267e-01
        72         5       -1.252531e+00
        73         5        6.869253e-01
        74         5        9.363631e-01
        75         5        1.021901e+00
        76         5       -9.868846e-01
        77         5        4.655762e-01
        78         5       -2.366170e-01
        79         5       -1.514988e-01
        80         5       -5.087418e-01
        81         5       -2.614185e-01
        82         5       -1.887773e-01
        83         5       -1.874334e+00
        84         5       -4.292743e-01
        85         5        5.576700e-01
        86         5        1.092757e+00
        87         5        1.534167e+00
        88         5       -8.989184e-01
        89         5        3.451676e-01
        90         5        1.859780e+00
        91         5       -1.004398e+00
        92         5       -2.289314e+00
        93         5        5.484447e-01
        94         5        1.445139e+00
        95         5        1.959910e-01
        96         5        4.306957e-01
        97         5        2.552650e-01
        98         5       -1.856331e-01
        99         5       -8.583507e-01
       100         5        4.741024e-01
;

param theta:=
    1        4.983690e-01
    2        2.346009e+00
    3        7.370469e-01
    4        4.854157e-01
    5       -1.099846e+00
;
param X_true:=
    1        6.438509e-01
    2       -2.682319e-01
    3        7.112972e-01
    4       -8.656464e+00
    5        2.084354e+00
    6        5.654233e-01
    7        1.045915e+00
    8       -3.497592e+00
    9       -2.965626e+00
   10        7.731086e-01
   11       -3.947914e+00
   12       -8.893963e-01
   13       -1.503780e+00
   14        1.167500e+00
   15        2.258515e+00
   16        8.104204e-01
   17        2.249378e+00
   18       -1.484178e+00
   19        4.921233e-01
   20        4.902825e+00
   21        2.186029e+00
   22       -2.326711e+00
   23        2.963890e-01
   24        2.877132e-01
   25       -4.929575e-01
   26        4.342082e+00
   27       -4.926396e+00
   28        3.447826e+00
   29        2.324174e+00
   30       -1.773149e+00
   31       -1.834283e-01
   32        3.844658e+00
   33        1.028568e+00
   34       -1.076247e+00
   35       -4.721684e+00
   36        3.037894e+00
   37       -5.202230e+00
   38       -1.224469e-01
   39        1.151551e-01
   40        1.688699e+00
   41        6.650373e+00
   42        5.131220e+00
   43        2.600905e+00
   44       -9.102927e-01
   45        5.162867e+00
   46        8.690767e-02
   47       -3.391212e+00
   48       -5.707354e+00
   49       -1.740801e+00
   50       -6.277079e+00
   51        1.993231e+00
   52       -6.799197e-01
   53       -4.492005e+00
   54        3.110036e-01
   55       -1.806624e+00
   56        2.594579e+00
   57       -2.104330e+00
   58        3.127590e+00
   59        2.194813e+00
   60       -5.446105e-01
   61        4.219143e+00
   62        2.878234e+00
   63       -2.823614e+00
   64        2.133069e+00
   65       -1.144095e+00
   66        1.215239e+00
   67        1.321530e+00
   68       -1.730246e+00
   69        2.956159e+00
   70        9.900838e-01
   71        5.866455e+00
   72        5.593562e+00
   73       -2.943846e+00
   74        1.278929e+00
   75       -5.232351e+00
   76       -1.145219e+00
   77        4.839028e-01
   78        4.221124e+00
   79        1.764138e+00
   80        3.370883e+00
   81        5.606331e-01
   82        8.981192e-01
   83        5.611386e+00
   84        1.064247e+00
   85       -2.929612e+00
   86        9.551456e-01
   87       -2.232129e+00
   88        3.404393e+00
   89       -1.447016e+00
   90       -1.582121e+00
   91        2.308516e+00
   92       -3.664122e-01
   93       -1.640802e+00
   94       -6.263390e+00
   95       -2.214902e+00
   96       -5.306859e+00
   97        1.681064e+00
   98       -2.257800e+00
   99        2.030716e+00
  100       -1.230737e+00
;
param X:=
    1        3.204937e-01
    2        1.805255e+00
    3        7.112972e-01
    4       -1.586927e+00
    5       -7.291253e-01
    6        5.654233e-01
    7        1.045915e+00
    8       -3.497592e+00
    9        3.009579e-01
   10       -1.226273e+00
   11       -6.651340e-01
   12        6.738160e-01
   13       -1.503780e+00
   14       -4.186567e-01
   15        4.021884e-01
   16        4.716124e-01
   17        9.919755e-01
   18        1.533875e+00
   19        2.546489e-01
   20        5.514662e-01
   21       -1.217079e+00
   22       -3.860610e-01
   23       -1.669171e+00
   24       -1.419887e+00
   25       -4.929575e-01
   26        4.342082e+00
   27       -4.926396e+00
   28       -7.214319e-01
   29        2.324174e+00
   30       -1.773149e+00
   31       -1.834283e-01
   32       -1.144124e-01
   33       -1.467103e+00
   34        3.010021e-01
   35        6.165381e-01
   36        2.165330e-01
   37       -5.202230e+00
   38       -3.596422e-01
   39       -5.470610e-01
   40       -3.856673e-01
   41        6.650373e+00
   42        5.131220e+00
   43        2.600905e+00
   44       -9.102927e-01
   45        4.052590e-02
   46        4.802302e-01
   47       -3.391212e+00
   48       -5.078266e-01
   49       -1.740801e+00
   50        7.706222e-01
   51        1.993231e+00
   52       -4.362140e-01
   53       -3.208388e-02
   54       -8.675948e-01
   55        1.338652e+00
   56        1.385477e-01
   57       -2.104330e+00
   58        7.573446e-01
   59       -1.384573e+00
   60        7.194904e-01
   61       -8.807519e-01
   62        1.535359e-01
   63        6.061991e-01
   64       -1.769518e+00
   65       -1.144095e+00
   66        1.215239e+00
   67        8.725122e-01
   68       -9.453716e-01
   69        2.064819e-01
   70        9.890636e-01
   71       -1.624790e+00
   72       -1.767109e-01
   73       -2.943846e+00
   74        1.278929e+00
   75        4.796478e-01
   76       -1.145219e+00
   77       -2.060188e-01
   78        6.622439e-01
   79        1.764138e+00
   80       -7.590650e-01
   81       -1.006365e+00
   82        2.738122e+00
   83        5.611386e+00
   84        1.064247e+00
   85        7.294519e-02
   86       -1.248673e-01
   87       -1.709313e-01
   88       -1.575847e+00
   89       -1.243698e+00
   90       -3.809195e-01
   91        4.494695e-01
   92       -3.664122e-01
   93        8.474663e-01
   94       -9.498879e-01
   95        1.768612e-01
   96       -5.306859e+00
   97        9.689239e-01
   98       -1.393083e+00
   99       -8.391529e-01
  100        3.584385e-01
;
param outliervec:=
    1    1
    2    1
    3    0
    4    1
    5    1
    6    0
    7    0
    8    0
    9    1
   10    1
   11    1
   12    1
   13    0
   14    1
   15    1
   16    1
   17    1
   18    1
   19    1
   20    1
   21    1
   22    1
   23    1
   24    1
   25    0
   26    0
   27    0
   28    1
   29    0
   30    0
   31    0
   32    1
   33    1
   34    1
   35    1
   36    1
   37    0
   38    1
   39    1
   40    1
   41    0
   42    0
   43    0
   44    0
   45    1
   46    1
   47    0
   48    1
   49    0
   50    1
   51    0
   52    1
   53    1
   54    1
   55    1
   56    1
   57    0
   58    1
   59    1
   60    1
   61    1
   62    1
   63    1
   64    1
   65    0
   66    0
   67    1
   68    1
   69    1
   70    1
   71    1
   72    1
   73    0
   74    0
   75    1
   76    0
   77    1
   78    1
   79    0
   80    1
   81    1
   82    1
   83    0
   84    0
   85    1
   86    1
   87    1
   88    1
   89    1
   90    1
   91    1
   92    0
   93    1
   94    1
   95    1
   96    0
   97    1
   98    1
   99    1
  100    1
;